RLW03
Position Depot: Center
Horizon for Depot: Large
Position of customers: Random
Distribution of the demand: Medium
Width of time windows: Wide
Distribution of the service: Small

VEHICLE 
NUMBER 	 CAPACITY 
 7 	 	 173 
 
CUSTOMER
CUST NO. 	 XCOORD.  	 YCOORD. 	 DEMAND 	 READY TIME 	 DUE DATE 	 SERVICE TIME 
 0 	 	 500 	 	 500 	 	 0 	 	 0 	 	 3092 	 	 0 
  1 	 	 425 	 	 151 	 	 3 	 	 871 	 	 1259 	 	 58 
  2 	 	 603 	 	 805 	 	 7 	 	 824 	 	 1287 	 	 68 
  3 	 	 757 	 	 430 	 	 7 	 	 1151 	 	 1599 	 	 63 
  4 	 	 732 	 	 849 	 	 7 	 	 2675 	 	 3092 	 	 55 
  5 	 	 65 	 	 132 	 	 3 	 	 831 	 	 1044 	 	 56 
  6 	 	 259 	 	 159 	 	 2 	 	 1486 	 	 1781 	 	 50 
  7 	 	 91 	 	 437 	 	 1 	 	 2095 	 	 2406 	 	 84 
  8 	 	 432 	 	 355 	 	 2 	 	 2609 	 	 3092 	 	 93 
  9 	 	 429 	 	 854 	 	 2 	 	 915 	 	 1257 	 	 61 
  10 	 	 491 	 	 824 	 	 1 	 	 755 	 	 999 	 	 74 
  11 	 	 126 	 	 684 	 	 9 	 	 1838 	 	 2239 	 	 57 
  12 	 	 620 	 	 874 	 	 3 	 	 1430 	 	 1733 	 	 60 
  13 	 	 533 	 	 263 	 	 9 	 	 956 	 	 1408 	 	 90 
  14 	 	 916 	 	 829 	 	 4 	 	 2368 	 	 2740 	 	 81 
  15 	 	 105 	 	 8 	 	 6 	 	 2735 	 	 3071 	 	 53 
  16 	 	 553 	 	 640 	 	 2 	 	 706 	 	 1166 	 	 67 
  17 	 	 276 	 	 723 	 	 3 	 	 367 	 	 698 	 	 62 
  18 	 	 417 	 	 574 	 	 1 	 	 1952 	 	 2412 	 	 59 
  19 	 	 968 	 	 423 	 	 8 	 	 2670 	 	 3026 	 	 67 
  20 	 	 503 	 	 219 	 	 10 	 	 1765 	 	 2088 	 	 71 
  21 	 	 180 	 	 620 	 	 10 	 	 2628 	 	 3058 	 	 84 
  22 	 	 153 	 	 59 	 	 9 	 	 2691 	 	 2960 	 	 91 
  23 	 	 779 	 	 831 	 	 63 	 	 1065 	 	 1517 	 	 80 
  24 	 	 337 	 	 121 	 	 3 	 	 2694 	 	 3025 	 	 64 
  25 	 	 90 	 	 650 	 	 1 	 	 2162 	 	 2450 	 	 93 
  26 	 	 118 	 	 231 	 	 9 	 	 2145 	 	 2502 	 	 77 
  27 	 	 335 	 	 4 	 	 5 	 	 2364 	 	 2676 	 	 55 
  28 	 	 760 	 	 229 	 	 6 	 	 869 	 	 1334 	 	 74 
  29 	 	 23 	 	 124 	 	 3 	 	 340 	 	 668 	 	 99 
  30 	 	 146 	 	 697 	 	 6 	 	 198 	 	 445 	 	 96 
  31 	 	 105 	 	 307 	 	 5 	 	 2056 	 	 2281 	 	 73 
  32 	 	 31 	 	 80 	 	 7 	 	 1361 	 	 1684 	 	 56 
  33 	 	 695 	 	 336 	 	 9 	 	 1189 	 	 1446 	 	 72 
  34 	 	 945 	 	 822 	 	 3 	 	 2313 	 	 2651 	 	 75 
  35 	 	 93 	 	 695 	 	 9 	 	 1703 	 	 2191 	 	 76 
  36 	 	 548 	 	 956 	 	 4 	 	 2414 	 	 2768 	 	 85 
  37 	 	 136 	 	 55 	 	 2 	 	 555 	 	 878 	 	 63 
  38 	 	 918 	 	 445 	 	 1 	 	 787 	 	 1262 	 	 67 
  39 	 	 967 	 	 542 	 	 3 	 	 1524 	 	 1777 	 	 97 
  40 	 	 382 	 	 70 	 	 9 	 	 1248 	 	 1726 	 	 85 
  41 	 	 864 	 	 823 	 	 10 	 	 178 	 	 535 	 	 78 
  42 	 	 698 	 	 135 	 	 10 	 	 426 	 	 736 	 	 80 
  43 	 	 861 	 	 820 	 	 71 	 	 1320 	 	 1669 	 	 60 
  44 	 	 159 	 	 869 	 	 8 	 	 1531 	 	 1791 	 	 88 
  45 	 	 148 	 	 276 	 	 10 	 	 -17 	 	 458 	 	 50 
  46 	 	 941 	 	 834 	 	 7 	 	 2605 	 	 3092 	 	 56 
  47 	 	 470 	 	 31 	 	 10 	 	 2574 	 	 2990 	 	 67 
  48 	 	 955 	 	 379 	 	 10 	 	 1778 	 	 2005 	 	 56 
  49 	 	 482 	 	 797 	 	 1 	 	 71 	 	 327 	 	 87 
  50 	 	 142 	 	 543 	 	 6 	 	 2088 	 	 2426 	 	 100 
  51 	 	 581 	 	 930 	 	 72 	 	 1778 	 	 2103 	 	 89 
  52 	 	 245 	 	 108 	 	 6 	 	 519 	 	 778 	 	 99 
  53 	 	 41 	 	 938 	 	 7 	 	 2715 	 	 3092 	 	 66 
  54 	 	 673 	 	 640 	 	 99 	 	 17 	 	 439 	 	 76 
  55 	 	 385 	 	 367 	 	 6 	 	 1645 	 	 1966 	 	 90 
  56 	 	 624 	 	 531 	 	 6 	 	 2627 	 	 2885 	 	 82 
  57 	 	 176 	 	 556 	 	 8 	 	 1265 	 	 1527 	 	 87 
  58 	 	 22 	 	 491 	 	 74 	 	 2442 	 	 2731 	 	 75 
  59 	 	 733 	 	 233 	 	 6 	 	 1184 	 	 1509 	 	 100 
  60 	 	 693 	 	 472 	 	 6 	 	 1867 	 	 2166 	 	 77 
  61 	 	 451 	 	 408 	 	 10 	 	 1831 	 	 2167 	 	 58 
  62 	 	 153 	 	 12 	 	 2 	 	 420 	 	 658 	 	 61 
  63 	 	 469 	 	 784 	 	 9 	 	 1041 	 	 1320 	 	 59 
  64 	 	 995 	 	 537 	 	 66 	 	 109 	 	 546 	 	 75 
  65 	 	 830 	 	 649 	 	 4 	 	 2002 	 	 2402 	 	 50 
  66 	 	 557 	 	 823 	 	 7 	 	 504 	 	 795 	 	 71 
  67 	 	 678 	 	 244 	 	 9 	 	 2143 	 	 2425 	 	 61 
  68 	 	 384 	 	 599 	 	 4 	 	 1590 	 	 1910 	 	 100 
  69 	 	 41 	 	 958 	 	 4 	 	 2634 	 	 3092 	 	 94 
  70 	 	 626 	 	 669 	 	 54 	 	 813 	 	 1216 	 	 99 
  71 	 	 476 	 	 121 	 	 1 	 	 1462 	 	 1707 	 	 85 
  72 	 	 96 	 	 656 	 	 52 	 	 1962 	 	 2284 	 	 99 
  73 	 	 12 	 	 21 	 	 69 	 	 1739 	 	 2081 	 	 96 
  74 	 	 425 	 	 170 	 	 9 	 	 2717 	 	 3079 	 	 99 
  75 	 	 547 	 	 651 	 	 9 	 	 1468 	 	 1951 	 	 60 
  76 	 	 715 	 	 404 	 	 4 	 	 1858 	 	 2200 	 	 73 
  77 	 	 950 	 	 155 	 	 5 	 	 596 	 	 838 	 	 96 
  78 	 	 369 	 	 344 	 	 66 	 	 879 	 	 1208 	 	 72 
  79 	 	 393 	 	 285 	 	 1 	 	 477 	 	 743 	 	 66 
  80 	 	 231 	 	 201 	 	 10 	 	 2050 	 	 2351 	 	 84 
  81 	 	 439 	 	 733 	 	 86 	 	 328 	 	 811 	 	 79 
  82 	 	 400 	 	 728 	 	 2 	 	 512 	 	 741 	 	 51 
  83 	 	 764 	 	 415 	 	 3 	 	 2287 	 	 2553 	 	 93 
  84 	 	 551 	 	 559 	 	 4 	 	 1427 	 	 1698 	 	 68 
  85 	 	 207 	 	 677 	 	 7 	 	 1315 	 	 1606 	 	 64 
  86 	 	 304 	 	 726 	 	 8 	 	 2017 	 	 2366 	 	 55 
  87 	 	 526 	 	 847 	 	 8 	 	 34 	 	 382 	 	 89 
  88 	 	 606 	 	 105 	 	 8 	 	 929 	 	 1158 	 	 53 
  89 	 	 848 	 	 800 	 	 3 	 	 2451 	 	 2703 	 	 57 
  90 	 	 874 	 	 445 	 	 4 	 	 2786 	 	 3092 	 	 82 
  91 	 	 519 	 	 406 	 	 4 	 	 1340 	 	 1804 	 	 58 
  92 	 	 833 	 	 733 	 	 1 	 	 2808 	 	 3069 	 	 62 
  93 	 	 781 	 	 576 	 	 8 	 	 2073 	 	 2391 	 	 67 
  94 	 	 38 	 	 653 	 	 9 	 	 1899 	 	 2218 	 	 76 
  95 	 	 990 	 	 280 	 	 7 	 	 1462 	 	 1801 	 	 81 
  96 	 	 100 	 	 685 	 	 58 	 	 521 	 	 1007 	 	 51 
  97 	 	 464 	 	 771 	 	 4 	 	 1375 	 	 1850 	 	 71 
  98 	 	 929 	 	 249 	 	 1 	 	 1518 	 	 1944 	 	 62 
  99 	 	 979 	 	 177 	 	 4 	 	 1888 	 	 2285 	 	 83 
  100 	 	 369 	 	 201 	 	 10 	 	 77 	 	 451 	 	 53 
 